p tw 133 251
1 106
1 107
1 125
2 36
2 73
2 91
3 50
3 51
3 82
3 83
3 118
3 119
4 88
4 89
4 104
4 105
5 66
5 67
5 113
5 114
6 53
6 90
6 124
7 54
7 55
7 95
7 96
8 43
8 44
8 75
8 76
8 107
8 108
9 64
9 109
9 110
10 48
10 49
10 125
10 126
11 38
11 39
11 77
11 78
11 94
11 95
12 58
12 59
12 129
12 130
13 68
13 69
13 78
13 79
13 114
13 115
14 40
14 41
14 99
14 100
15 112
15 113
15 126
15 127
16 41
16 42
16 86
16 87
16 101
16 102
17 42
17 87
17 88
18 89
18 90
18 105
19 62
19 63
19 100
19 101
20 60
20 61
20 84
20 85
20 97
20 98
21 69
21 70
21 80
21 81
21 116
21 117
22 56
22 57
22 128
22 129
23 52
23 53
23 123
23 124
23 133
24 54
24 73
24 74
24 91
24 92
25 36
25 37
25 74
25 75
25 92
25 93
26 63
26 132
26 133
27 44
27 45
27 108
27 109
28 70
28 71
28 81
28 82
28 117
28 118
29 64
29 65
29 76
29 77
29 110
29 111
30 72
30 85
30 86
30 121
30 122
31 102
31 103
31 131
31 132
32 67
32 68
32 79
32 80
32 127
32 128
33 71
33 72
33 83
33 84
33 119
33 120
34 46
34 47
34 111
34 112
35 39
35 40
35 96
35 97
36 37
37 38
38 39
39 40
40 41
41 42
43 44
43 106
44 45
45 46
46 47
47 48
48 49
49 50
50 51
51 52
52 53
54 55
55 56
56 57
57 58
58 59
59 60
60 61
61 62
62 63
64 65
65 66
66 67
67 68
68 69
69 70
70 71
71 72
73 74
74 75
75 76
76 77
77 78
78 79
79 80
80 81
81 82
82 83
83 84
84 85
85 86
86 87
87 88
88 89
89 90
91 92
92 93
93 94
94 95
95 96
96 97
97 98
98 99
99 100
100 101
101 102
102 103
103 104
104 105
106 107
107 108
108 109
109 110
110 111
111 112
112 113
113 114
114 115
115 116
116 117
117 118
118 119
119 120
120 121
121 122
122 123
123 124
125 126
126 127
127 128
128 129
129 130
130 131
131 132
132 133
